z3_origin/1599121979634128000.txt
sat
(:max-memory          18.52
 :memory              18.32
 :nlsat-arith-var     2
 :nlsat-atoms         23
 :nlsat-bool-var      1
 :nlsat-clauses       7
 :nlsat-conflicts     6
 :nlsat-decisions     3
 :nlsat-propagations  40
 :nlsat-stages        8
 :num-allocs          72243
 :rlimit-count        3137
 :solve-eqs-elim-vars 2
 :solve-eqs-steps     10
 :time                0.00
 :total-time          0.02)
